c ind 10 106 109 11 112 128 13 131 14 147 0
c ind 150 167 170 177 188 194 20 22 24 26 0
c ind 28 66 69 85 90 93 0
p cnf 205 800
-1 186 0
-1 2 0
-100 -57 92 0
-100 57 101 0
-101 -60 92 0
-101 60 102 0
-102 -62 92 0
-102 62 103 0
-103 -82 104 0
-103 82 84 0
-104 -105 84 0
-104 105 92 0
-105 -106 11 0
-105 -11 106 0
-107 -9 108 0
-107 9 110 0
-108 -109 14 0
-108 -14 109 0
-110 -16 111 0
-110 16 113 0
-111 -109 112 0
-111 -112 109 0
-113 -30 111 0
-113 30 114 0
-114 -35 111 0
-114 35 115 0
-115 -40 111 0
-115 40 116 0
-116 -44 111 0
-116 44 117 0
-117 -48 111 0
-117 48 118 0
-118 -51 111 0
-118 51 119 0
-119 -54 111 0
-119 54 120 0
-12 -13 14 0
-12 -14 13 0
-120 -57 121 0
-120 57 122 0
-121 -109 11 0
-121 -11 109 0
-122 -60 111 0
-122 60 123 0
-123 -62 111 0
-123 62 124 0
-124 -82 125 0
-124 82 108 0
-125 -105 108 0
-125 105 111 0
-126 -9 127 0
-126 9 129 0
-127 -128 14 0
-127 -14 128 0
-129 -16 130 0
-129 16 132 0
-130 -128 131 0
-130 -131 128 0
-132 -30 130 0
-132 30 133 0
-133 -35 130 0
-133 35 134 0
-134 -40 135 0
-134 40 136 0
-135 -11 128 0
-135 -128 11 0
-136 -44 130 0
-136 44 137 0
-137 -48 130 0
-137 48 138 0
-138 -51 139 0
-138 51 140 0
-139 -105 127 0
-139 105 130 0
-14 0
-140 -54 130 0
-140 54 141 0
-141 -57 130 0
-141 57 142 0
-142 -60 130 0
-142 60 143 0
-143 -62 130 0
-143 62 144 0
-144 -82 130 0
-144 82 127 0
-145 -9 146 0
-145 9 148 0
-146 -14 147 0
-146 -147 14 0
-148 -16 149 0
-148 16 151 0
-149 -147 150 0
-149 -150 147 0
-15 -16 27 0
-15 16 29 0
-151 -30 152 0
-151 30 154 0
-152 -89 153 0
-152 89 149 0
-153 -11 147 0
-153 -147 11 0
-154 -35 146 0
-154 35 155 0
-155 -40 149 0
-155 40 156 0
-156 -44 149 0
-156 44 157 0
-157 -48 149 0
-157 48 158 0
-158 -51 159 0
-158 51 160 0
-159 -105 153 0
-159 105 149 0
-16 17 0
-16 25 0
-160 -54 146 0
-160 54 161 0
-161 -57 149 0
-161 57 162 0
-162 -60 149 0
-162 60 163 0
-163 -62 149 0
-163 62 164 0
-164 -82 149 0
-164 82 146 0
-165 -9 166 0
-165 9 168 0
-166 -14 167 0
-166 -167 14 0
-168 -16 169 0
-168 16 171 0
-169 -167 170 0
-169 -170 167 0
-17 18 0
-17 23 0
-171 -30 169 0
-171 30 172 0
-172 -35 169 0
-172 35 173 0
-173 -40 169 0
-173 40 174 0
-174 -44 175 0
-174 44 179 0
-175 -176 178 0
-175 176 169 0
-176 -11 177 0
-176 -177 11 0
-178 -11 167 0
-178 -167 11 0
-179 -48 166 0
-179 48 180 0
-18 19 0
-18 21 0
-180 -51 169 0
-180 51 181 0
-181 -54 169 0
-181 54 182 0
-182 -57 169 0
-182 57 183 0
-183 -60 175 0
-183 60 184 0
-184 -62 166 0
-184 62 185 0
-185 -82 169 0
-185 82 166 0
-186 -9 187 0
-186 9 189 0
-187 -14 188 0
-187 -188 14 0
-189 -16 187 0
-189 16 190 0
-19 -14 20 0
-19 -20 14 0
-190 -30 191 0
-190 30 195 0
-191 -89 192 0
-191 89 193 0
-192 -11 188 0
-192 -188 11 0
-193 -188 194 0
-193 -194 188 0
-195 -35 193 0
-195 35 196 0
-196 -40 193 0
-196 40 197 0
-197 -44 193 0
-197 44 198 0
-198 -48 193 0
-198 48 199 0
-199 -51 193 0
-199 51 200 0
-2 165 0
-2 3 0
-200 -54 193 0
-200 54 201 0
-201 -57 193 0
-201 57 202 0
-202 -60 193 0
-202 60 203 0
-203 -62 193 0
-203 62 204 0
-204 -82 205 0
-204 82 187 0
-205 -105 187 0
-205 105 193 0
-21 -14 22 0
-21 -22 14 0
-23 -14 24 0
-23 -24 14 0
-25 -14 26 0
-25 -26 14 0
-27 -13 28 0
-27 -28 13 0
-29 -30 27 0
-29 30 34 0
-3 145 0
-3 4 0
-30 25 0
-30 31 0
-31 23 0
-31 32 0
-32 21 0
-32 33 0
-33 -11 20 0
-33 -20 11 0
-34 -35 27 0
-34 35 39 0
-35 25 0
-35 36 0
-36 23 0
-36 37 0
-37 19 0
-37 38 0
-38 -11 22 0
-38 -22 11 0
-39 -40 27 0
-39 40 43 0
-4 126 0
-4 5 0
-40 25 0
-40 41 0
-41 23 0
-41 42 0
-42 33 0
-42 38 0
-43 -44 27 0
-43 44 47 0
-44 25 0
-44 45 0
-45 18 0
-45 46 0
-46 -11 24 0
-46 -24 11 0
-47 -48 27 0
-47 48 50 0
-48 25 0
-48 49 0
-49 32 0
-49 46 0
-5 107 0
-5 6 0
-50 -51 27 0
-50 51 53 0
-51 36 0
-51 52 0
-52 -11 26 0
-52 -26 11 0
-53 -54 27 0
-53 54 56 0
-54 25 0
-54 55 0
-55 37 0
-55 46 0
-56 -57 27 0
-56 57 59 0
-57 25 0
-57 58 0
-58 42 0
-58 46 0
-59 -60 27 0
-59 60 61 0
-6 7 0
-6 83 0
-60 17 0
-60 52 0
-61 -62 63 0
-61 62 12 0
-62 31 0
-62 52 0
-63 -11 13 0
-63 -13 11 0
-64 -9 65 0
-64 9 67 0
-65 -14 66 0
-65 -66 14 0
-67 -16 68 0
-67 16 70 0
-68 -66 69 0
-68 -69 66 0
-7 64 0
-7 8 0
-70 -30 68 0
-70 30 71 0
-71 -35 68 0
-71 35 72 0
-72 -40 68 0
-72 40 73 0
-73 -44 68 0
-73 44 74 0
-74 -48 75 0
-74 48 76 0
-75 -11 66 0
-75 -66 11 0
-76 -51 65 0
-76 51 77 0
-77 -54 68 0
-77 54 78 0
-78 -57 68 0
-78 57 79 0
-79 -60 68 0
-79 60 80 0
-8 -9 12 0
-8 9 15 0
-80 -62 68 0
-80 62 81 0
-81 -82 68 0
-81 82 65 0
-82 41 0
-82 52 0
-83 -9 84 0
-83 9 86 0
-84 -11 85 0
-84 -85 11 0
-86 -16 84 0
-86 16 87 0
-87 -30 88 0
-87 30 94 0
-88 -89 91 0
-88 89 92 0
-89 -11 90 0
-89 -90 11 0
-9 -10 11 0
-9 -11 10 0
-91 -14 85 0
-91 -85 14 0
-92 -85 93 0
-92 -93 85 0
-94 -35 92 0
-94 35 95 0
-95 -40 92 0
-95 40 96 0
-96 -44 92 0
-96 44 97 0
-97 -48 92 0
-97 48 98 0
-98 -51 92 0
-98 51 99 0
-99 -54 92 0
-99 54 100 0
1 -2 -186 0
1 0
100 -57 -92 0
100 -92 -101 0
100 57 -101 0
101 -60 -92 0
101 -92 -102 0
101 60 -102 0
102 -62 -92 0
102 -92 -103 0
102 62 -103 0
103 -104 -84 0
103 -82 -104 0
103 82 -84 0
104 -105 -84 0
104 -84 -92 0
104 105 -92 0
105 -106 -11 0
105 106 11 0
107 -108 -110 0
107 -9 -108 0
107 9 -110 0
108 -109 -14 0
108 109 14 0
11 0
110 -111 -113 0
110 -16 -111 0
110 16 -113 0
111 -109 -112 0
111 109 112 0
113 -111 -114 0
113 -30 -111 0
113 30 -114 0
114 -111 -115 0
114 -35 -111 0
114 35 -115 0
115 -111 -116 0
115 -40 -111 0
115 40 -116 0
116 -111 -117 0
116 -44 -111 0
116 44 -117 0
117 -111 -118 0
117 -48 -111 0
117 48 -118 0
118 -111 -119 0
118 -51 -111 0
118 51 -119 0
119 -111 -120 0
119 -54 -111 0
119 54 -120 0
12 -13 -14 0
12 13 14 0
120 -121 -122 0
120 -57 -121 0
120 57 -122 0
121 -109 -11 0
121 109 11 0
122 -111 -123 0
122 -60 -111 0
122 60 -123 0
123 -111 -124 0
123 -62 -111 0
123 62 -124 0
124 -125 -108 0
124 -82 -125 0
124 82 -108 0
125 -105 -108 0
125 -108 -111 0
125 105 -111 0
126 -127 -129 0
126 -9 -127 0
126 9 -129 0
127 -128 -14 0
127 128 14 0
129 -130 -132 0
129 -16 -130 0
129 16 -132 0
130 -128 -131 0
130 128 131 0
132 -130 -133 0
132 -30 -130 0
132 30 -133 0
133 -130 -134 0
133 -35 -130 0
133 35 -134 0
134 -135 -136 0
134 -40 -135 0
134 40 -136 0
135 -128 -11 0
135 128 11 0
136 -130 -137 0
136 -44 -130 0
136 44 -137 0
137 -130 -138 0
137 -48 -130 0
137 48 -138 0
138 -139 -140 0
138 -51 -139 0
138 51 -140 0
139 -105 -127 0
139 -127 -130 0
139 105 -130 0
140 -130 -141 0
140 -54 -130 0
140 54 -141 0
141 -130 -142 0
141 -57 -130 0
141 57 -142 0
142 -130 -143 0
142 -60 -130 0
142 60 -143 0
143 -130 -144 0
143 -62 -130 0
143 62 -144 0
144 -130 -127 0
144 -82 -130 0
144 82 -127 0
145 -146 -148 0
145 -9 -146 0
145 9 -148 0
146 -147 -14 0
146 147 14 0
148 -149 -151 0
148 -16 -149 0
148 16 -151 0
149 -147 -150 0
149 147 150 0
15 -16 -27 0
15 -27 -29 0
15 16 -29 0
151 -152 -154 0
151 -30 -152 0
151 30 -154 0
152 -153 -149 0
152 -89 -153 0
152 89 -149 0
153 -147 -11 0
153 147 11 0
154 -146 -155 0
154 -35 -146 0
154 35 -155 0
155 -149 -156 0
155 -40 -149 0
155 40 -156 0
156 -149 -157 0
156 -44 -149 0
156 44 -157 0
157 -149 -158 0
157 -48 -149 0
157 48 -158 0
158 -159 -160 0
158 -51 -159 0
158 51 -160 0
159 -105 -153 0
159 -153 -149 0
159 105 -149 0
16 -17 -25 0
160 -146 -161 0
160 -54 -146 0
160 54 -161 0
161 -149 -162 0
161 -57 -149 0
161 57 -162 0
162 -149 -163 0
162 -60 -149 0
162 60 -163 0
163 -149 -164 0
163 -62 -149 0
163 62 -164 0
164 -149 -146 0
164 -82 -149 0
164 82 -146 0
165 -166 -168 0
165 -9 -166 0
165 9 -168 0
166 -167 -14 0
166 167 14 0
168 -16 -169 0
168 -169 -171 0
168 16 -171 0
169 -167 -170 0
169 167 170 0
17 -18 -23 0
171 -169 -172 0
171 -30 -169 0
171 30 -172 0
172 -169 -173 0
172 -35 -169 0
172 35 -173 0
173 -169 -174 0
173 -40 -169 0
173 40 -174 0
174 -175 -179 0
174 -44 -175 0
174 44 -179 0
175 -176 -178 0
175 -178 -169 0
175 176 -169 0
176 -177 -11 0
176 177 11 0
178 -167 -11 0
178 167 11 0
179 -166 -180 0
179 -48 -166 0
179 48 -180 0
18 -19 -21 0
180 -169 -181 0
180 -51 -169 0
180 51 -181 0
181 -169 -182 0
181 -54 -169 0
181 54 -182 0
182 -169 -183 0
182 -57 -169 0
182 57 -183 0
183 -175 -184 0
183 -60 -175 0
183 60 -184 0
184 -166 -185 0
184 -62 -166 0
184 62 -185 0
185 -169 -166 0
185 -82 -169 0
185 82 -166 0
186 -187 -189 0
186 -9 -187 0
186 9 -189 0
187 -188 -14 0
187 188 14 0
189 -16 -187 0
189 -187 -190 0
189 16 -190 0
19 -20 -14 0
19 20 14 0
190 -191 -195 0
190 -30 -191 0
190 30 -195 0
191 -192 -193 0
191 -89 -192 0
191 89 -193 0
192 -188 -11 0
192 188 11 0
193 -188 -194 0
193 188 194 0
195 -193 -196 0
195 -35 -193 0
195 35 -196 0
196 -193 -197 0
196 -40 -193 0
196 40 -197 0
197 -193 -198 0
197 -44 -193 0
197 44 -198 0
198 -193 -199 0
198 -48 -193 0
198 48 -199 0
199 -193 -200 0
199 -51 -193 0
199 51 -200 0
2 -3 -165 0
200 -193 -201 0
200 -54 -193 0
200 54 -201 0
201 -193 -202 0
201 -57 -193 0
201 57 -202 0
202 -193 -203 0
202 -60 -193 0
202 60 -203 0
203 -193 -204 0
203 -62 -193 0
203 62 -204 0
204 -205 -187 0
204 -82 -205 0
204 82 -187 0
205 -105 -187 0
205 -187 -193 0
205 105 -193 0
21 -22 -14 0
21 22 14 0
23 -24 -14 0
23 24 14 0
25 -26 -14 0
25 26 14 0
27 -13 -28 0
27 13 28 0
29 -27 -34 0
29 -30 -27 0
29 30 -34 0
3 -4 -145 0
30 -31 -25 0
31 -32 -23 0
32 -33 -21 0
33 -20 -11 0
33 20 11 0
34 -27 -39 0
34 -35 -27 0
34 35 -39 0
35 -36 -25 0
36 -37 -23 0
37 -19 -38 0
38 -22 -11 0
38 22 11 0
39 -27 -43 0
39 -40 -27 0
39 40 -43 0
4 -5 -126 0
40 -41 -25 0
41 -42 -23 0
42 -33 -38 0
43 -27 -47 0
43 -44 -27 0
43 44 -47 0
44 -45 -25 0
45 -18 -46 0
46 -24 -11 0
46 24 11 0
47 -27 -50 0
47 -48 -27 0
47 48 -50 0
48 -49 -25 0
49 -32 -46 0
5 -6 -107 0
50 -27 -53 0
50 -51 -27 0
50 51 -53 0
51 -36 -52 0
52 -26 -11 0
52 26 11 0
53 -27 -56 0
53 -54 -27 0
53 54 -56 0
54 -55 -25 0
55 -37 -46 0
56 -27 -59 0
56 -57 -27 0
56 57 -59 0
57 -58 -25 0
58 -42 -46 0
59 -27 -61 0
59 -60 -27 0
59 60 -61 0
6 -7 -83 0
60 -17 -52 0
61 -62 -63 0
61 -63 -12 0
61 62 -12 0
62 -31 -52 0
63 -13 -11 0
63 13 11 0
64 -65 -67 0
64 -9 -65 0
64 9 -67 0
65 -66 -14 0
65 66 14 0
67 -16 -68 0
67 -68 -70 0
67 16 -70 0
68 -66 -69 0
68 66 69 0
7 -8 -64 0
70 -30 -68 0
70 -68 -71 0
70 30 -71 0
71 -35 -68 0
71 -68 -72 0
71 35 -72 0
72 -40 -68 0
72 -68 -73 0
72 40 -73 0
73 -44 -68 0
73 -68 -74 0
73 44 -74 0
74 -48 -75 0
74 -75 -76 0
74 48 -76 0
75 -66 -11 0
75 66 11 0
76 -51 -65 0
76 -65 -77 0
76 51 -77 0
77 -54 -68 0
77 -68 -78 0
77 54 -78 0
78 -57 -68 0
78 -68 -79 0
78 57 -79 0
79 -60 -68 0
79 -68 -80 0
79 60 -80 0
8 -12 -15 0
8 -9 -12 0
8 9 -15 0
80 -62 -68 0
80 -68 -81 0
80 62 -81 0
81 -68 -65 0
81 -82 -68 0
81 82 -65 0
82 -41 -52 0
83 -84 -86 0
83 -9 -84 0
83 9 -86 0
84 -85 -11 0
84 85 11 0
86 -16 -84 0
86 -84 -87 0
86 16 -87 0
87 -30 -88 0
87 -88 -94 0
87 30 -94 0
88 -89 -91 0
88 -91 -92 0
88 89 -92 0
89 -90 -11 0
89 90 11 0
9 -10 -11 0
9 10 11 0
91 -85 -14 0
91 85 14 0
92 -85 -93 0
92 85 93 0
94 -35 -92 0
94 -92 -95 0
94 35 -95 0
95 -40 -92 0
95 -92 -96 0
95 40 -96 0
96 -44 -92 0
96 -92 -97 0
96 44 -97 0
97 -48 -92 0
97 -92 -98 0
97 48 -98 0
98 -51 -92 0
98 -92 -99 0
98 51 -99 0
99 -54 -92 0
99 -92 -100 0
99 54 -100 0
